SECTION Graph
Nodes 84
Edges 149
E 1 68 6
E 1 70 1
E 1 71 1
E 1 72 5
E 2 72 6
E 3 70 5
E 3 72 1
E 4 71 5
E 4 72 1
E 5 10 7
E 5 62 1
E 5 63 1
E 5 64 6
E 6 64 5
E 6 65 1
E 6 67 1
E 6 68 1
E 7 62 6
E 7 64 1
E 7 65 5
E 8 63 6
E 8 64 1
E 8 67 5
E 9 14 7
E 9 57 1
E 9 58 1
E 9 59 5
E 10 59 6
E 10 60 1
E 10 61 1
E 11 57 5
E 11 59 1
E 11 60 6
E 12 58 5
E 12 59 1
E 12 61 6
E 13 18 7
E 13 52 1
E 13 53 1
E 13 54 6
E 14 54 5
E 14 55 1
E 14 56 1
E 15 52 6
E 15 54 1
E 15 55 5
E 16 53 6
E 16 54 1
E 16 56 5
E 17 22 7
E 17 47 1
E 17 48 1
E 17 49 5
E 18 49 6
E 18 50 1
E 18 51 1
E 19 47 5
E 19 49 1
E 19 50 6
E 20 48 5
E 20 49 1
E 20 51 6
E 21 26 7
E 21 42 1
E 21 43 1
E 21 44 6
E 22 44 5
E 22 45 1
E 22 46 1
E 23 42 6
E 23 44 1
E 23 45 5
E 24 43 6
E 24 44 1
E 24 46 5
E 25 38 1
E 25 39 5
E 26 39 6
E 26 40 1
E 26 41 1
E 27 39 1
E 27 40 6
E 28 38 5
E 28 39 1
E 28 41 6
E 29 30 17
E 29 31 1
E 30 32 1
E 31 32 17
E 31 33 16
E 32 34 16
E 33 34 17
E 33 36 1
E 34 38 58
E 35 36 17
E 37 66 34
E 40 42 7
E 41 43 7
E 45 47 7
E 46 48 7
E 50 52 7
E 51 53 7
E 55 57 7
E 56 58 7
E 60 62 7
E 61 63 7
E 65 66 1
E 66 68 1
E 66 70 6
E 67 69 1
E 68 69 1
E 69 71 6
E 1 73 100000
E 2 73 100000
E 3 73 100000
E 4 73 100000
E 5 74 100000
E 6 74 100000
E 7 74 100000
E 8 74 100000
E 9 75 100000
E 10 75 100000
E 11 75 100000
E 12 75 100000
E 13 76 100000
E 14 76 100000
E 15 76 100000
E 16 76 100000
E 17 77 100000
E 18 77 100000
E 19 77 100000
E 20 77 100000
E 21 78 100000
E 22 78 100000
E 23 78 100000
E 24 78 100000
E 25 79 100000
E 26 79 100000
E 27 79 100000
E 28 79 100000
E 29 80 100000
E 30 80 100000
E 31 81 100000
E 32 81 100000
E 33 82 100000
E 34 82 100000
E 35 83 100000
E 36 83 100000
E 37 84 100000
END

SECTION Terminals
Terminals 12
T 73
T 74
T 75
T 76
T 77
T 78
T 79
T 80
T 81
T 82
T 83
T 84
END

EOF
